;; Original file: ts_206.smt2
(set-logic HORN)
(declare-fun inv (Real Real Real Real Real Real) Bool)
(declare-fun fail () Bool)
(assert (forall ((x Real) (i Real) (j Real) (k Real) (l Real) (m Real))
  (=> (and (= x 1) (= i 1) (= j 1) (= k 1) (= l 1) (= m 1)) (inv x i j k l m))))
(assert (forall ((x Real)
         (i Real)
         (j Real)
         (k Real)
         (l Real)
         (m Real)
         (x1 Real)
         (i1 Real)
         (j1 Real)
         (k1 Real)
         (l1 Real)
         (m1 Real))
  (=> (and (inv x i j k l m)
           (= x1 (+ x i j k l m))
           (= i1 (+ x i j k l m))
           (= j1 (+ x i j k l m))
           (= k1 (+ x i j k l m))
           (= l1 (+ x i j k l m))
           (= m1 (+ x i j k l m)))
      (inv x1 i1 j1 k1 l1 m1))))
(assert (forall ((i Real) (j Real) (k Real) (l Real) (m Real) (x Real))
  (=> (and (inv x i j k l m) (not (>= x 1))) false)))

(check-sat)
(exit)
